c File: flat50_3_0.col
c
c SOURCE: Joseph Culberson (joe@cs.ualberta.ca)
c DESCRIPTION: Quasi-random coloring problem
c              generated with flatness = 0
c                             probability = 0.139
c                             known coloring = 3
c                             random seed = 1777
c              Creation Date:  Tue Jun  9 12:17:38 1998
c Maximum degree = 8 Minimum degree = 2
c p edge 50 115
c cnf created by edge2cnf
p cnf 150 545
-1 -2 0
-1 -3 0
-2 -3 0
1 2 3 0
-4 -5 0
-4 -6 0
-5 -6 0
4 5 6 0
-7 -8 0
-7 -9 0
-8 -9 0
7 8 9 0
-10 -11 0
-10 -12 0
-11 -12 0
10 11 12 0
-13 -14 0
-13 -15 0
-14 -15 0
13 14 15 0
-16 -17 0
-16 -18 0
-17 -18 0
16 17 18 0
-19 -20 0
-19 -21 0
-20 -21 0
19 20 21 0
-22 -23 0
-22 -24 0
-23 -24 0
22 23 24 0
-25 -26 0
-25 -27 0
-26 -27 0
25 26 27 0
-28 -29 0
-28 -30 0
-29 -30 0
28 29 30 0
-31 -32 0
-31 -33 0
-32 -33 0
31 32 33 0
-34 -35 0
-34 -36 0
-35 -36 0
34 35 36 0
-37 -38 0
-37 -39 0
-38 -39 0
37 38 39 0
-40 -41 0
-40 -42 0
-41 -42 0
40 41 42 0
-43 -44 0
-43 -45 0
-44 -45 0
43 44 45 0
-46 -47 0
-46 -48 0
-47 -48 0
46 47 48 0
-49 -50 0
-49 -51 0
-50 -51 0
49 50 51 0
-52 -53 0
-52 -54 0
-53 -54 0
52 53 54 0
-55 -56 0
-55 -57 0
-56 -57 0
55 56 57 0
-58 -59 0
-58 -60 0
-59 -60 0
58 59 60 0
-61 -62 0
-61 -63 0
-62 -63 0
61 62 63 0
-64 -65 0
-64 -66 0
-65 -66 0
64 65 66 0
-67 -68 0
-67 -69 0
-68 -69 0
67 68 69 0
-70 -71 0
-70 -72 0
-71 -72 0
70 71 72 0
-73 -74 0
-73 -75 0
-74 -75 0
73 74 75 0
-76 -77 0
-76 -78 0
-77 -78 0
76 77 78 0
-79 -80 0
-79 -81 0
-80 -81 0
79 80 81 0
-82 -83 0
-82 -84 0
-83 -84 0
82 83 84 0
-85 -86 0
-85 -87 0
-86 -87 0
85 86 87 0
-88 -89 0
-88 -90 0
-89 -90 0
88 89 90 0
-91 -92 0
-91 -93 0
-92 -93 0
91 92 93 0
-94 -95 0
-94 -96 0
-95 -96 0
94 95 96 0
-97 -98 0
-97 -99 0
-98 -99 0
97 98 99 0
-100 -101 0
-100 -102 0
-101 -102 0
100 101 102 0
-103 -104 0
-103 -105 0
-104 -105 0
103 104 105 0
-106 -107 0
-106 -108 0
-107 -108 0
106 107 108 0
-109 -110 0
-109 -111 0
-110 -111 0
109 110 111 0
-112 -113 0
-112 -114 0
-113 -114 0
112 113 114 0
-115 -116 0
-115 -117 0
-116 -117 0
115 116 117 0
-118 -119 0
-118 -120 0
-119 -120 0
118 119 120 0
-121 -122 0
-121 -123 0
-122 -123 0
121 122 123 0
-124 -125 0
-124 -126 0
-125 -126 0
124 125 126 0
-127 -128 0
-127 -129 0
-128 -129 0
127 128 129 0
-130 -131 0
-130 -132 0
-131 -132 0
130 131 132 0
-133 -134 0
-133 -135 0
-134 -135 0
133 134 135 0
-136 -137 0
-136 -138 0
-137 -138 0
136 137 138 0
-139 -140 0
-139 -141 0
-140 -141 0
139 140 141 0
-142 -143 0
-142 -144 0
-143 -144 0
142 143 144 0
-145 -146 0
-145 -147 0
-146 -147 0
145 146 147 0
-148 -149 0
-148 -150 0
-149 -150 0
148 149 150 0
-91 -1 0
-92 -2 0
-93 -3 0
-145 -1 0
-146 -2 0
-147 -3 0
-70 -4 0
-71 -5 0
-72 -6 0
-91 -4 0
-92 -5 0
-93 -6 0
-97 -4 0
-98 -5 0
-99 -6 0
-100 -4 0
-101 -5 0
-102 -6 0
-115 -4 0
-116 -5 0
-117 -6 0
-118 -4 0
-119 -5 0
-120 -6 0
-142 -4 0
-143 -5 0
-144 -6 0
-55 -7 0
-56 -8 0
-57 -9 0
-64 -7 0
-65 -8 0
-66 -9 0
-79 -7 0
-80 -8 0
-81 -9 0
-91 -7 0
-92 -8 0
-93 -9 0
-112 -7 0
-113 -8 0
-114 -9 0
-130 -7 0
-131 -8 0
-132 -9 0
-142 -7 0
-143 -8 0
-144 -9 0
-55 -10 0
-56 -11 0
-57 -12 0
-88 -10 0
-89 -11 0
-90 -12 0
-106 -10 0
-107 -11 0
-108 -12 0
-58 -13 0
-59 -14 0
-60 -15 0
-61 -13 0
-62 -14 0
-63 -15 0
-133 -13 0
-134 -14 0
-135 -15 0
-64 -16 0
-65 -17 0
-66 -18 0
-67 -16 0
-68 -17 0
-69 -18 0
-70 -16 0
-71 -17 0
-72 -18 0
-76 -16 0
-77 -17 0
-78 -18 0
-103 -16 0
-104 -17 0
-105 -18 0
-109 -16 0
-110 -17 0
-111 -18 0
-115 -16 0
-116 -17 0
-117 -18 0
-118 -16 0
-119 -17 0
-120 -18 0
-94 -19 0
-95 -20 0
-96 -21 0
-124 -19 0
-125 -20 0
-126 -21 0
-52 -22 0
-53 -23 0
-54 -24 0
-61 -22 0
-62 -23 0
-63 -24 0
-100 -22 0
-101 -23 0
-102 -24 0
-124 -22 0
-125 -23 0
-126 -24 0
-148 -22 0
-149 -23 0
-150 -24 0
-61 -25 0
-62 -26 0
-63 -27 0
-70 -25 0
-71 -26 0
-72 -27 0
-97 -25 0
-98 -26 0
-99 -27 0
-139 -25 0
-140 -26 0
-141 -27 0
-145 -25 0
-146 -26 0
-147 -27 0
-52 -28 0
-53 -29 0
-54 -30 0
-73 -28 0
-74 -29 0
-75 -30 0
-115 -28 0
-116 -29 0
-117 -30 0
-136 -28 0
-137 -29 0
-138 -30 0
-79 -31 0
-80 -32 0
-81 -33 0
-82 -31 0
-83 -32 0
-84 -33 0
-145 -31 0
-146 -32 0
-147 -33 0
-52 -34 0
-53 -35 0
-54 -36 0
-61 -34 0
-62 -35 0
-63 -36 0
-88 -34 0
-89 -35 0
-90 -36 0
-91 -34 0
-92 -35 0
-93 -36 0
-103 -34 0
-104 -35 0
-105 -36 0
-112 -34 0
-113 -35 0
-114 -36 0
-118 -34 0
-119 -35 0
-120 -36 0
-139 -34 0
-140 -35 0
-141 -36 0
-76 -37 0
-77 -38 0
-78 -39 0
-115 -37 0
-116 -38 0
-117 -39 0
-127 -37 0
-128 -38 0
-129 -39 0
-133 -37 0
-134 -38 0
-135 -39 0
-112 -40 0
-113 -41 0
-114 -42 0
-121 -40 0
-122 -41 0
-123 -42 0
-130 -40 0
-131 -41 0
-132 -42 0
-142 -40 0
-143 -41 0
-144 -42 0
-82 -43 0
-83 -44 0
-84 -45 0
-139 -43 0
-140 -44 0
-141 -45 0
-52 -46 0
-53 -47 0
-54 -48 0
-55 -46 0
-56 -47 0
-57 -48 0
-64 -46 0
-65 -47 0
-66 -48 0
-67 -46 0
-68 -47 0
-69 -48 0
-133 -46 0
-134 -47 0
-135 -48 0
-142 -46 0
-143 -47 0
-144 -48 0
-55 -49 0
-56 -50 0
-57 -51 0
-64 -49 0
-65 -50 0
-66 -51 0
-103 -49 0
-104 -50 0
-105 -51 0
-112 -49 0
-113 -50 0
-114 -51 0
-142 -52 0
-143 -53 0
-144 -54 0
-112 -58 0
-113 -59 0
-114 -60 0
-121 -58 0
-122 -59 0
-123 -60 0
-130 -58 0
-131 -59 0
-132 -60 0
-121 -61 0
-122 -62 0
-123 -63 0
-130 -61 0
-131 -62 0
-132 -63 0
-124 -64 0
-125 -65 0
-126 -66 0
-127 -64 0
-128 -65 0
-129 -66 0
-139 -64 0
-140 -65 0
-141 -66 0
-124 -67 0
-125 -68 0
-126 -69 0
-136 -67 0
-137 -68 0
-138 -69 0
-148 -67 0
-149 -68 0
-150 -69 0
-106 -70 0
-107 -71 0
-108 -72 0
-133 -70 0
-134 -71 0
-135 -72 0
-103 -73 0
-104 -74 0
-105 -75 0
-115 -73 0
-116 -74 0
-117 -75 0
-118 -73 0
-119 -74 0
-120 -75 0
-130 -73 0
-131 -74 0
-132 -75 0
-106 -76 0
-107 -77 0
-108 -78 0
-115 -76 0
-116 -77 0
-117 -78 0
-124 -76 0
-125 -77 0
-126 -78 0
-133 -76 0
-134 -77 0
-135 -78 0
-109 -79 0
-110 -80 0
-111 -81 0
-115 -82 0
-116 -83 0
-117 -84 0
-130 -82 0
-131 -83 0
-132 -84 0
-112 -85 0
-113 -86 0
-114 -87 0
-118 -85 0
-119 -86 0
-120 -87 0
-145 -85 0
-146 -86 0
-147 -87 0
-145 -88 0
-146 -89 0
-147 -90 0
-109 -91 0
-110 -92 0
-111 -93 0
-121 -94 0
-122 -95 0
-123 -96 0
-118 -97 0
-119 -98 0
-120 -99 0
-145 -97 0
-146 -98 0
-147 -99 0
-148 -97 0
-149 -98 0
-150 -99 0
-106 -100 0
-107 -101 0
-108 -102 0
-127 -100 0
-128 -101 0
-129 -102 0
-133 -100 0
-134 -101 0
-135 -102 0
-136 -100 0
-137 -101 0
-138 -102 0
